NAME : berlin52_solution.tour
TYPE : TOUR
DIMENSION : 53
COMMENT : Tour length: 8529.07
COMMENT : Time elapsed: 33.74 [s]
TOUR_SECTION
0
48
34
33
43
45
15
28
19
49
29
20
16
1
6
41
22
30
21
17
2
18
8
9
7
40
44
42
32
50
10
51
12
13
46
25
26
27
11
24
3
5
14
4
23
47
37
39
36
38
35
31
0
-1
EOF
